13301
0 0 0 0 1 1 0 1 1 1 1 0 0 1 0 0 0 0 1 0 0 1 1 0 0 1 0 1 0 0
21 10 7 8 5 8 13 18 21 13 8 13 18 21 5 8 13 18 7 5 21 27 27 25 5 22 27 8 5 25 4 13 10 9 4 8 27 8 7 5 25 13 18 10 4 10 7 9 5 9 22 13 8 7 13 21 18 8 13 9 22 13 8 7 13 4 13 10 9 21 4 22 18 7 4 10 7 8 27 7 4 13 10 9 4 21 10 18 7 5 4 13 8 9 4 8 27 18 21 5 4 25 22 10 22 22 27 8 25 5 10 27 9 25 9 10 27 8 7 13 7 27 9 5 7 21 27 8 13 25 10 13 8 7 7 21 27 8 25 9 4 13 10 21 21 22 27 9 25 25